183 60 55 175 166 134 163 138 78 63 98 174 54 26 47 31 156 53 65 25 82 178 154 118 158 184 108 35 8 70 109 41 186 95 141 49 197 171 66 131 27 110 5 7 195 114 68 105 176 88 116 72 22 45 188 46 198 93 121 0 97 94 10 56 149 1 165 34 58 102 16 86 101 124 75 140 170 99 30 37 57 71 147 137 199 181 3 81 161 12 182 59 159 52 172 135 164 191 103 48 126 6 91 42 123 21 122 150 36 20 69 139 24 13 62 145 77 187 155 64 192 148 169 14 115 189 4 43 180 129 90 11 179 18 160 112 76 162 9 83 33 190 111 133 80 61 92 100 153 74 106 32 40 29 128 168 107 96 89 104 79 19 50 173 15 177 144 125 185 152 39 67 23 44 28 130 2 196 117 120 157 142 193 132 84 194 127 51 146 151 73 17 38 143 85 136 113 167 87 119 

